language ESSENCE' 1.0
letting nrows be 2
letting ncols be 5

letting nrobots be 2
letting robot_pos be [[2, 1],
                      [2, 2]]

letting ntasks be 2
letting task_obj  be [1, 2]
letting task_dest be [[2, 5],
                      [2, 4]]

letting time_limit be 5

letting map be [[ -1, -1, 0, -1, -1],
                [  1,  2, 0,  0,  0]]
